Route #1: 26 47 31 13 28
Route #2: 18 7 24 59 51 41
Route #3: 33 16 66 43 27 38 17
Route #4: 53 6 34 14 50 10
Route #5: 29 32 23 8 37 65 2
Route #6: 39 44 64 60 36 42 40 46
Route #7: 48 25 21 15 54
Route #8: 12 58 22 52 45 56 5
Route #9: 55 30 3 57 61 62 9 63
Route #10: 4 11 35 1 49 19 20
cost 1206.8231201171875